unsat
(:binary-propagations  20
 :conflicts            1
 :final-checks         1
 :max-generation       1
 :max-memory           23.71
 :memory               20.97
 :mk-bool-var          519
 :mk-clause            154
 :mk-clause-binary     767
 :num-allocs           9544912
 :num-checks           1
 :propagations         20
 :quant-instantiations 127
 :restarts             1
 :rlimit-count         129452
 :time                 0.03)
